c A SAT instance generated from a 3-CNF formula that had 32 clauses and 8 variables
p cnf 8 32
8 2 7 0
3 -8 1 0
3 -1 8 0
-7 4 -8 0
-6 8 7 0
2 3 6 0
6 -8 7 0
4 5 6 0
-1 7 -2 0
6 2 4 0
-7 -4 2 0
3 8 -6 0
2 -3 -8 0
-6 1 -4 0
8 -7 3 0
-6 -4 -1 0
7 8 -1 0
3 1 6 0
1 2 -4 0
-5 3 -2 0
-6 3 -7 0
-5 -7 4 0
-8 5 4 0
-5 -6 3 0
-8 2 4 0
2 7 -6 0
-5 -8 -3 0
2 3 -8 0
-5 -8 2 0
4 6 -7 0
-4 2 8 0
8 1 -6 0
